
Gurobi 11.0.3 (linux64) logging started Sat Nov 23 17:40:07 2024

Set parameter LogFile to value "/home/yihong/Coding/OR_SUC/SUC_results_bigM100000_thread4/case24_ieee_rts_theta0.5_epsilon0.025_gurobi_seed400000_num_gen100_N_WDR150_load_scaling_factor1_exact_T24quadra_cost.txt"
Set parameter TimeLimit to value 3600
Gurobi Optimizer version 11.0.3 build v11.0.3rc0 (linux64 - "Ubuntu 20.04.6 LTS")

CPU model: AMD EPYC 7532 32-Core Processor, instruction set [SSE2|AVX|AVX2]
Thread count: 64 physical cores, 128 logical processors, using up to 4 threads

Optimize a model with 54015 rows, 30061 columns and 917478 nonzeros
Model fingerprint: 0x9733a301
Model has 2400 quadratic constraints
Variable types: 27511 continuous, 2550 integer (2550 binary)
Coefficient statistics:
  Matrix range     [1e-04, 1e+05]
  QMatrix range    [2e-03, 8e-03]
  QLMatrix range   [9e-02, 6e+01]
  Objective range  [1e+00, 1e+00]
  Bounds range     [1e+00, 1e+00]
  RHS range        [1e+00, 1e+05]
Presolve removed 43842 rows and 12888 columns
Presolve time: 0.31s
Presolved: 10173 rows, 17173 columns, 55628 nonzeros
Presolved model has 2400 quadratic constraint(s)
Variable types: 14687 continuous, 2486 integer (2486 binary)

Root relaxation: objective 7.144925e+04, 8058 iterations, 0.19 seconds (0.26 work units)

    Nodes    |    Current Node    |     Objective Bounds      |     Work
 Expl Unexpl |  Obj  Depth IntInf | Incumbent    BestBd   Gap | It/Node Time

     0     0 71449.2499    0    5          - 71449.2499      -     -    0s
     0     0 364468.198    0  620          - 364468.198      -     -    1s
     0     0 404847.247    0  645          - 404847.247      -     -    1s
     0     0 641533.090    0  693          - 641533.090      -     -    1s
     0     0 641579.981    0  526          - 641579.981      -     -    1s
     0     0 641866.562    0  423          - 641866.562      -     -    1s
     0     0 641870.186    0  423          - 641870.186      -     -    1s
     0     0 641870.186    0  410          - 641870.186      -     -    1s
     0     0 641871.770    0  410          - 641871.770      -     -    2s
     0     2 641871.770    0  410          - 641871.770      -     -    2s
H  810   413                    642032.21662 641886.810  0.02%  20.4    4s
*  810   413             216    642032.21662 641886.810  0.02%  20.4    4s

Cutting planes:
  Gomory: 7
  Implied bound: 344
  MIR: 130
  Flow cover: 89
  RLT: 1
  Relax-and-lift: 64

Explored 996 nodes (40941 simplex iterations) in 5.68 seconds (7.08 work units)
Thread count was 4 (of 128 available processors)

Solution count 2: 642032 642032 

Optimal solution found (tolerance 1.00e-03)
Warning: max constraint violation (2.1204e-07) exceeds tolerance
Best objective 6.420322166247e+05, best bound 6.418872051327e+05, gap 0.0226%
